unknown
(model
; cardinality of BoundSet is 5
(declare-sort BoundSet 0)
; rep: @uc_BoundSet_0
; rep: @uc_BoundSet_1
; rep: @uc_BoundSet_2
; rep: @uc_BoundSet_3
; rep: @uc_BoundSet_4
; cardinality of UnboundSet is 1
(declare-sort UnboundSet 0)
(declare-fun groundTerm_6 () UnboundSet)
(define-fun IsFlooded ((BOUND_VARIABLE_539 BoundSet)) Bool true)
(define-fun HasCarsInWater ((BOUND_VARIABLE_539 BoundSet)) Bool true)
(define-fun AreFlooded ((BOUND_VARIABLE_539 BoundSet)) Bool true)
(define-fun IsOutside ((BOUND_VARIABLE_539 BoundSet)) Bool false)
)
sat
(model
; cardinality of BoundSet is 1
(declare-sort BoundSet 0)
; rep: @uc_BoundSet_0
; cardinality of UnboundSet is 1
(declare-sort UnboundSet 0)
(declare-fun groundTerm_12 () UnboundSet)
(define-fun IsFlooded ((BOUND_VARIABLE_592 BoundSet)) Bool true)
(define-fun HasCarsInWater ((BOUND_VARIABLE_592 BoundSet)) Bool true)
(define-fun AreFlooded ((BOUND_VARIABLE_592 BoundSet)) Bool true)
(define-fun IsOutside ((BOUND_VARIABLE_592 BoundSet)) Bool false)
)
